w = 39;
n = 29;
measures = [|15, 39,
|5, 18,
|5, 13,
|4, 16,
|4, 15,
|5, 11,
|5, 10,
|4, 12,
|3, 15,
|5, 8,
|4, 9,
|3, 11,
|4, 8,
|3, 10,
|5, 6,
|3, 9,
|5, 5,
|3, 8,
|4, 6,
|3, 7,
|4, 5,
|5, 4,
|3, 6,
|4, 4,
|3, 5,
|5, 3,
|3, 4,
|4, 3,
|3, 3,
|];
initial_x = [0, 15, 20, 25, 29, 33, 0, 5, 9, 12, 17, 21, 24, 28, 31, 36, 0, 5, 8, 12, 15, 19, 24, 27, 31, 34, 0, 3, 7];
initial_y = [0, 0, 0, 0, 0, 0, 39, 39, 39, 39, 39, 39, 39, 39, 39, 39, 54, 54, 54, 54, 54, 54, 54, 54, 54, 54, 62, 62, 62];